
Gurobi 11.0.3 (linux64) logging started Mon 18 Nov 2024 10:30:37 PM CST

Set parameter LogFile to value "/home/dlcole3/graph_abstraction/hierarchical_graphs/git_storage/CS1/HP_low_reserves/gurobi_logs/serial/logfile_ST17_6.log"

Gurobi 11.0.3 (linux64) logging started Mon 18 Nov 2024 10:34:26 PM CST

Set parameter LogFile to value "/home/dlcole3/graph_abstraction/hierarchical_graphs/git_storage/CS1/HP_low_reserves/gurobi_logs/serial/logfile_ST17_6.log"
Gurobi Optimizer version 11.0.3 build v11.0.3rc0 (linux64 - "Ubuntu 18.04.3 LTS")

CPU model: Intel(R) Xeon(R) CPU E5-2698 v4 @ 2.20GHz, instruction set [SSE2|AVX|AVX2]
Thread count: 40 physical cores, 80 logical processors, using up to 20 threads

Optimize a model with 29168 rows, 50688 columns and 136175 nonzeros
Model fingerprint: 0x8b089e73
Variable types: 46944 continuous, 3744 integer (3744 binary)
Coefficient statistics:
  Matrix range     [6e-01, 2e+04]
  Objective range  [2e+00, 2e+04]
  Bounds range     [5e-02, 2e+05]
  RHS range        [5e-02, 7e+03]
Presolve removed 14057 rows and 38705 columns
Presolve time: 0.34s
Presolved: 15111 rows, 11983 columns, 64585 nonzeros
Variable types: 8919 continuous, 3064 integer (3064 binary)
Found heuristic solution: objective 170928.41207
Found heuristic solution: objective 161746.73507
Found heuristic solution: objective 133755.62631

Root relaxation: objective 1.271629e+04, 7458 iterations, 0.28 seconds (0.20 work units)

    Nodes    |    Current Node    |     Objective Bounds      |     Work
 Expl Unexpl |  Obj  Depth IntInf | Incumbent    BestBd   Gap | It/Node Time

     0     0 12716.2927    0    5 133755.626 12716.2927  90.5%     -    1s
H    0     0                    14179.920769 12716.2927  10.3%     -    1s
H    0     0                    14179.920705 12716.3122  10.3%     -    1s
     0     0 12716.3122    0    5 14179.9207 12716.3122  10.3%     -    1s
     0     0 12716.3122    0    2 14179.9207 12716.3122  10.3%     -    2s
H    0     0                    14179.920284 12742.9328  10.1%     -    2s
     0     0 12742.9328    0    2 14179.9203 12742.9328  10.1%     -    2s
     0     0 12743.7147    0    2 14179.9203 12743.7147  10.1%     -    2s
     0     2 12743.7147    0    2 14179.9203 12743.7147  10.1%     -    2s
H   74    76                    13471.852138 12761.4724  5.27%   3.4    2s
H   91    90                    13471.852098 12761.4724  5.27%   3.5    2s
H   94    90                    13471.851741 12761.4724  5.27%   3.5    2s
H  318   223                    13083.189821 12761.4973  2.46%   4.1    3s
H  318   223                    13082.279213 12761.4973  2.45%   4.1    3s
H  444   219                    12877.517418 12761.4973  0.90%   4.0    3s
H  500   213                    12849.830338 12761.4973  0.69%   3.8    3s
H  572   244                    12828.458338 12761.4973  0.52%   3.4    3s
H  624   231                    12828.368276 12761.4973  0.52%   3.2    3s
H  625   231                    12828.343346 12761.4973  0.52%   3.2    3s
H  648   231                    12828.343341 12761.4973  0.52%   3.2    3s

Explored 1124 nodes (16354 simplex iterations) in 3.81 seconds (2.32 work units)
Thread count was 20 (of 80 available processors)

Solution count 10: 12828.3 12828.4 12849.8 ... 161747

Optimal solution found (tolerance 3.00e-03)
Best objective 1.282834334167e+04, best bound 1.281003349432e+04, gap 0.1427%

User-callback calls 3883, time in user-callback 0.00 sec
